
Gurobi 12.0.3 (linux64) logging started Fri Mar 27 22:45:59 2026

Set parameter LogFile to value "/home/solar-wind/WT_Solar_results_bigM100000_thread4/case24_ieee_rts_theta0.15_epsilon0.1_gurobi_seed30000_num_gen38_N_WDR300_load_scaling_factor1_EIFICA_T24_num_Solar5_num_WT10.txt"
Gurobi Optimizer version 12.0.3 build v12.0.3rc0 (linux64 - "Ubuntu 22.04.5 LTS")

CPU model: Intel(R) Xeon(R) Platinum 8378A CPU @ 3.00GHz, instruction set [SSE2|AVX|AVX2|AVX512]
Thread count: 32 physical cores, 64 logical processors, using up to 4 threads

Non-default parameters:
TimeLimit  14400
MIPGap  0.001
Seed  30000
Threads  4

Academic license 2721591 - for non-commercial use only - registered to fa___@mails.neu.edu.cn
Optimize a model with 878228 rows, 2125 columns and 75515848 nonzeros
Model fingerprint: 0xbd9407ca
Model has 912 quadratic objective terms
Coefficient statistics:
  Matrix range     [3e-07, 7e+01]
  Objective range  [2e+01, 6e+01]
  QObjective range [4e-03, 2e-02]
  Bounds range     [0e+00, 0e+00]
  RHS range        [7e-02, 1e+03]
Presolve removed 590789 rows and 0 columns (presolve time = 5s)...
Presolve removed 598780 rows and 0 columns
Presolve time: 8.46s
Presolved: 279448 rows, 2999 columns, 6191554 nonzeros
Presolved model has 912 quadratic objective terms
Elapsed ordering time = 9s
Elapsed ordering time = 29s
Ordering time: 59.39s
Elapsed ordering time = 62s
Elapsed ordering time = 65s
Elapsed ordering time = 73s
Elapsed ordering time = 75s
Elapsed ordering time = 86s
Elapsed ordering time = 90s
Elapsed ordering time = 99s
Elapsed ordering time = 100s
Elapsed ordering time = 112s
Elapsed ordering time = 115s
Elapsed ordering time = 125s
Ordering time: 135.10s

Barrier statistics:
 Dense cols : 1205
 AA' NZ     : 4.506e+08
 Factor NZ  : 1.844e+09 (roughly 15.0 GB of memory)
 Factor Ops : 3.962e+13 (roughly 220 seconds per iteration)
 Threads    : 4

                  Objective                Residual
Iter       Primal          Dual         Primal    Dual     Compl     Time
   0   5.56017294e+08 -2.97051093e+08  3.76e+04 9.90e+02  9.90e+05   324s
   1   5.21128650e+08 -2.66640307e+08  3.60e+04 9.48e+02  9.49e+05   324s
   2   5.13994995e+08 -3.53890707e+08  3.57e+04 9.39e+02  9.44e+05   325s
   3   4.76306449e+08 -5.04034719e+08  3.39e+04 8.92e+02  9.14e+05   326s
   4   4.24028763e+08 -6.00332786e+08  3.14e+04 8.24e+02  8.67e+05   326s
   5   3.69235880e+08 -7.16560822e+08  2.89e+04 7.48e+02  8.37e+05   326s
   6   3.30520645e+08 -7.37992395e+08  2.69e+04 6.91e+02  7.75e+05   327s
   7   2.97812084e+08 -7.64874000e+08  2.51e+04 6.41e+02  7.19e+05   327s
   8   2.63749468e+08 -7.91212012e+08  2.31e+04 5.86e+02  6.59e+05   327s
   9   2.36799239e+08 -8.18946179e+08  2.14e+04 5.41e+02  6.09e+05   328s
  10   2.10087089e+08 -8.47915784e+08  1.96e+04 4.94e+02  5.57e+05   328s
  11   1.88380007e+08 -8.75902711e+08  1.80e+04 4.55e+02  5.13e+05   328s
  12   1.68104657e+08 -9.07240966e+08  1.64e+04 4.16e+02  4.70e+05   328s
  13   1.48304812e+08 -9.33237941e+08  1.49e+04 3.76e+02  4.27e+05   328s
  14   1.32106337e+08 -9.63061061e+08  1.37e+04 3.43e+02  3.89e+05   329s
  15   1.17912728e+08 -9.94585944e+08  1.25e+04 3.13e+02  3.56e+05   329s
  16   1.03657750e+08 -1.02325818e+09  1.14e+04 2.81e+02  3.21e+05   329s
  17   9.31607982e+07 -1.04673939e+09  1.04e+04 2.57e+02  2.93e+05   329s
  18   7.93849443e+07 -1.07644681e+09  9.17e+03 2.24e+02  2.57e+05   330s
  19   6.94645637e+07 -1.10420251e+09  8.22e+03 1.99e+02  2.29e+05   330s
  20   6.06496061e+07 -1.13132694e+09  7.34e+03 1.77e+02  2.03e+05   330s
  21   5.12377049e+07 -1.15930559e+09  6.35e+03 1.52e+02  1.76e+05   330s
  22   4.50626770e+07 -1.17678990e+09  5.68e+03 1.35e+02  1.56e+05   331s
  23   3.77003830e+07 -1.19708121e+09  4.85e+03 1.14e+02  1.33e+05   331s
  24   3.13545505e+07 -1.21091794e+09  4.10e+03 9.63e+01  1.13e+05   331s
  25   2.66420988e+07 -1.21647192e+09  3.55e+03 8.25e+01  9.70e+04   331s
  26   2.15986148e+07 -1.21592785e+09  3.37e+03 6.75e+01  7.99e+04   331s
  27   1.73383026e+07 -1.20398436e+09  3.03e+03 5.45e+01  6.50e+04   332s
  28   1.40263150e+07 -1.18299388e+09  2.83e+03 4.42e+01  5.31e+04   332s
  29   1.09761281e+07 -1.14703904e+09  2.48e+03 3.45e+01  4.19e+04   332s
  30   3.50221372e+06 -9.95598767e+08  1.77e+03 1.04e+01  1.91e+04   332s
  31   3.20754162e+06 -9.50084504e+08  1.60e+03 9.42e+00  1.73e+04   332s
  32   2.90416776e+06 -8.96578830e+08  1.41e+03 8.39e+00  1.54e+04   333s
  33   2.46736250e+06 -8.19347757e+08  1.16e+03 6.91e+00  1.28e+04   333s
  34   2.03246282e+06 -7.27428998e+08  8.88e+02 5.42e+00  1.01e+04   333s
  35   1.75111456e+06 -6.98702093e+08  7.09e+02 4.43e+00  8.79e+03   333s
  36   1.48147737e+06 -6.53780183e+08  5.39e+02 3.44e+00  7.25e+03   333s
  37   1.20488738e+06 -5.93962076e+08  3.68e+02 2.39e+00  5.50e+03   334s
  38   9.49233187e+05 -4.73294289e+08  2.18e+02 1.43e+00  3.45e+03   334s
  39   8.35599579e+05 -3.85223396e+08  1.43e+02 9.46e-01  2.37e+03   334s
  40   7.51898287e+05 -3.21774764e+08  8.53e+01 5.55e-01  1.66e+03   335s
  41   7.16674075e+05 -2.59241646e+08  5.50e+01 3.58e-01  1.20e+03   335s
  42   7.01630535e+05 -2.26886213e+08  3.99e+01 2.60e-01  9.93e+02   336s
  43   6.92893520e+05 -1.92943853e+08  3.04e+01 1.96e-01  8.10e+02   337s
  44   6.90323429e+05 -1.79417725e+08  2.65e+01 1.71e-01  7.41e+02   338s
  45   6.88731331e+05 -1.68949588e+08  2.37e+01 1.53e-01  6.89e+02   340s
  46   6.87305310e+05 -1.56656013e+08  2.05e+01 1.32e-01  6.30e+02   341s
  47   6.85885241e+05 -1.38693070e+08  1.62e+01 1.04e-01  5.48e+02   342s
  48   6.87614197e+05 -9.03198557e+07  9.18e+00 5.88e-02  3.48e+02   344s
  49   6.87102153e+05 -6.54725533e+07  5.68e+00 3.63e-02  2.46e+02   348s
  50   6.86976511e+05 -4.11994736e+07  3.34e+00 2.05e-02  1.53e+02   350s
  51   6.86748534e+05 -2.46459465e+07  2.89e+00 7.30e-03  9.05e+01   355s
  52   6.85790865e+05 -8.16813123e+06  9.42e-01 1.76e-03  3.14e+01   366s
  53   6.78998426e+05  6.16234540e+04  3.99e-02 6.91e-03  2.18e+00   448s
  54   6.31207637e+05  4.05754708e+05  6.70e-03 1.16e-03  7.96e-01   532s
  55   6.06216922e+05  5.34008984e+05  1.18e-03 1.95e-04  2.55e-01   629s
  56   5.98388721e+05  5.72507393e+05  2.28e-04 3.75e-05  9.14e-02   787s
  57   5.95603286e+05  5.85206522e+05  4.77e-05 7.84e-06  3.67e-02   945s
  58   5.94856996e+05  5.88826292e+05  2.46e-05 4.04e-06  2.13e-02  1102s
  59   5.94499589e+05  5.90399592e+05  5.68e-06 9.33e-07  1.45e-02  1260s
  60   5.94086378e+05  5.92377681e+05  8.17e-08 1.34e-08  6.03e-03  1419s
  61   5.93933291e+05  5.93121887e+05  1.19e-09 1.81e-10  2.86e-03  1581s
  62   5.93867369e+05  5.93452053e+05  8.27e-10 3.21e-12  1.47e-03  1734s
  63   5.93811676e+05  5.93725580e+05  3.76e-10 3.08e-11  3.04e-04  1900s
  64   5.93800436e+05  5.93781366e+05  9.78e-09 3.56e-12  6.73e-05  2059s
  65   5.93797520e+05  5.93795432e+05  1.01e-08 1.51e-11  7.37e-06  2218s
  66   5.93797187e+05  5.93797052e+05  2.41e-09 6.17e-12  4.78e-07  2376s
  67   5.93797164e+05  5.93797164e+05  6.17e-10 1.15e-10  4.96e-10  2532s

Barrier solved model in 67 iterations and 2531.72 seconds (3213.62 work units)
Optimal objective 5.93797164e+05

